webassembly/ejemplos_dzn/folder6_json_9.dzn
TERM = { '.', 's(5)', 's(2)', 's(4)', 'local_1', 's(6)', 's(1)', 's(0)', 's(3)'};
null = '.';
s = 6;
n = 8;
ndeps = 3;
max_registers_sz = 4;
NR = 1;
registers = [|'local_1', 's(3)'|];
dependencies = [|'call[function_index(0)]_1', 'i32.load8_s_2', |'i32.load8_s_2', 'call[function_index(1)]_3', |'call[function_index(1)]_3', 'i32.store8_4'|];
GET_ENUM = { GET1, GET2, GET3, GET4, GET5};
SET_ENUM = { SET1, SET2, SET3, SET4, SET5};
TEE_ENUM = { TEE1, TEE2, TEE3, TEE4, TEE5};
N = 5;
OP = { 'i32.const_0', 'call[function_index(0)]_1', 'call[function_index(1)]_3', 'i32.load8_s_2', 'i32.store8_4' };
in_ops = [0, 1, 2, 1, 2 ];
out_ops = [1, 2, 3, 1, 0 ];
in1 = ['.', 's(6)', 's(2)', 's(1)', 's(5)' ];
in2 = ['.', '.', 's(0)', '.', 's(4)' ];
in3 = ['.', '.', '.', '.', '.' ];
out1 = ['s(6)', 's(1)', 's(5)', 's(2)', '.' ];
out2 = ['.', 's(0)', 's(4)', '.', '.' ];
out3 = ['.', '.', 's(3)', '.', '.' ];
comm = [false, false, false, false, false ];
gas = [1, 1, 1, 1, 1 ];
sz = [1, 1, 1, 1, 1 ];
stor = [false, true, true, false, true ];
lb = [ 1, 1, 1, 1, 1 ];
ub = [ 6, 6, 6, 6, 6 ];
startstack = [ null, null, null, null, null, null, null, null ];
endstack = [ null, null, null, null, null, null, null, null ];
